c randN150_K5_R0.2_L30_22.cnf
p cnf 150 30
34 132 13 78 -46 0
-93 78 51 -11 95 0
131 37 -116 150 121 0
-125 -48 -38 -69 31 0
98 9 -17 49 18 0
-117 -52 23 -3 -33 0
1 108 110 -113 -80 0
-77 86 89 -71 -99 0
72 11 142 -108 -5 0
2 37 -120 87 -70 0
89 58 24 -135 90 0
103 -117 -84 45 -4 0
-126 -122 108 -17 115 0
7 73 -86 12 -111 0
-96 35 79 -113 91 0
47 -76 54 -37 -130 0
97 150 -72 24 26 0
129 14 85 90 -4 0
-32 9 142 -109 -6 0
67 -56 -19 13 -99 0
4 -114 -49 -1 -65 0
100 38 102 126 31 0
-126 -56 -86 148 53 0
129 -121 -114 -13 -100 0
-126 -60 -54 -107 -36 0
1 -149 -137 89 -6 0
34 35 83 21 -99 0
135 113 19 -107 54 0
-31 43 22 -8 -67 0
6 -88 144 -8 124 0
